9 9
110 6 349 1 5 3 1 177 348
1 497 69 1 1 3 1 1 426
272 21 259 379 57 3 1 7 1
7 1 1 316 404 1 49 176 45
1 418 3 278 104 1 134 1 60
1 1 242 15 2 692 1 39 7
339 47 3 3 2 1 513 91 1
267 1 73 6 29 5 1 507 111
2 8 1 1 396 291 299 1 1
